problem_generation/data/GISP/train/er_n=60_m=1080_p=0.60_SET2_setparam=100.00_alpha=0.50_123.lp
maximize
OBJ:100x0 + 100x1 + 100x2 + 100x3 + 100x4 + 100x5 + 100x6 + 100x7 + 100x8 + 100x9 + 100x10 + 100x11 + 100x12 + 100x13 + 100x14 + 100x15 + 100x16 + 100x17 + 100x18 + 100x19 + 100x20 + 100x21 + 100x22 + 100x23 + 100x24 + 100x25 + 100x26 + 100x27 + 100x28 + 100x29 + 100x30 + 100x31 + 100x32 + 100x33 + 100x34 + 100x35 + 100x36 + 100x37 + 100x38 + 100x39 + 100x40 + 100x41 + 100x42 + 100x43 + 100x44 + 100x45 + 100x46 + 100x47 + 100x48 + 100x49 + 100x50 + 100x51 + 100x52 + 100x53 + 100x54 + 100x55 + 100x56 + 100x57 + 100x58 + 100x59 - y7_17 - y15_30 - y29_41 - y11_14 - y40_50 - y0_23 - y21_55 - y10_27 - y10_36 - y10_45 - y33_47 - y2_41 - y3_6 - y44_56 - y14_15 - y14_24 - y22_37 - y3_33 - y22_46 - y36_48 - y47_48 - y18_21 - y7_30 - y21_41 - y21_50 - y21_59 - y10_22 - y2_27 - y2_45 - y25_47 - y10_58 - y22_32 - y3_28 - y14_28 - y14_37 - y55_56 - y28_39 - y17_48 - y28_57 - y21_54 - y10_17 - y10_26 - y10_44 - y2_40 - y3_5 - y32_41 - y51_54 - y2_49 - y22_27 - y13_46 - y35_46 - y3_23 - y32_59 - y13_55 - y35_55 - y17_25 - y17_34 - y9_30 - y28_43 - y9_39 - y17_52 - y6_24 - y6_33 - y29_35 - y21_31 - y40_44 - y21_40 - y10_12 - y10_21 - y20_53 - y12_58 - y23_58 - y2_35 - y51_58 - y14_18 - y43_54 - y35_59 - y36_42 - y5_36 - y17_38 - y5_45 - y17_47 - y28_47 - y6_28 - y29_30 - y6_37 - y39_43 - y39_52 - y31_48 - y2_21 - y54_59 - y2_30 - y24_27 - y51_53 - y1_34 - y16_32 - y16_41 - y36_37 - y5_31 - y17_33 - y28_33 - y28_42 - y9_38 - y42_44 - y27_55 - y8_51 - y42_53 - y11_56 - y31_34 - y2_7 - y31_43 - y39_56 - y12_39 - y23_39 - y31_52 - y12_48 - y1_29 - y32_44 - y35_40 - y16_45 - y1_56 - y46_55 - y9_15 - y5_26 - y9_24 - y5_35 - y5_44 - y6_9 - y27_41 - y6_18 - y20_38 - y31_38 - y23_34 - y20_56 - y12_52 - y1_24 - y13_26 - y13_35 - y1_42 - y24_44 - y5_12 - y38_55 - y5_30 - y9_28 - y5_39 - y27_36 - y8_32 - y42_43 - y27_54 - y0_37 - y50_56 - y19_50 - y11_46 - y8_59 - y20_24 - y12_29 - y23_29 - y31_42 - y4_25 - y23_38 - y31_51 - y13_21 - y53_57 - y16_26 - y1_37 - y37_58 - y16_35 - y46_54 - y15_57 - y26_57 - y8_36 - y19_36 - y50_51 - y42_56 - y11_50 - y20_28 - y12_24 - y4_47 - y1_23 - y24_25 - y16_21 - y16_30 - y46_49 - y46_58 - y57_58 - y26_52 - y38_54 - y49_54 - y8_13 - y11_18 - y8_31 - y8_49 - y19_49 - y30_49 - y0_45 - y30_58 - y4_6 - y11_54 - y31_32 - y4_24 - y1_9 - y34_52 - y45_52 - y37_57 - y38_40 - y26_47 - y38_49 - y7_43 - y15_56 - y18_52 - y27_30 - y19_26 - y11_22 - y8_35 - y30_44 - y0_40 - y12_14 - y52_59 - y10_53 - y33_55 - y44_55 - y4_28 - y3_32 - y45_47 - y3_41 - y22_54 - y45_56 - y3_50 - y14_50 - y14_59 - y15_24 - y18_20 - y7_29 - y26_42 - y7_38 - y18_38 - y26_51 - y8_12 - y8_21 - y48_57 - y40_53 - y8_30 - y0_35 - y41_45 - y44_50 - y25_46 - y44_59 - y14_27 - y37_38 - y34_51 - y37_47 - y22_58 - y14_54 - y7_15 - y18_24 - y7_33 - y0_3 - y0_12 - y11_12 - y10_34 - y33_36 - y4_9 - y33_54 - y44_54 - y3_13 - y25_59 - y14_22 - y22_35 - y22_53 - y3_49 - y7_10 - y36_46 - y7_19 - y36_55 - y15_32 - y7_37 - y0_7 - y40_43 - y11_16 - y21_48 - y10_29 - y2_34 - y25_45 - y22_30 - y13_58 - y3_44 - y15_18 - y36_50 - y9_42 - y21_25 - y48_51 - y21_34 - y29_56 - y40_56 - y10_24 - y54_58 - y33_35 - y25_40 - y10_51 - y51_52 - y2_47 - y32_48 - y3_21 - y43_57 - y24_53 - y3_30 - y16_58 - y28_32 - y36_45 - y9_37 - y5_48 - y28_50 - y5_57 - y9_55 - y21_38 - y29_51 - y6_58 - y2_6 - y10_19 - y10_37 - y25_35 - y13_39 - y35_39 - y3_16 - y14_16 - y24_48 - y35_48 - y13_57 - y47_49 - y9_32 - y28_54 - y6_17 - y29_37 - y10_14 - y20_46 - y10_23 - y20_55 - y54_57 - y10_32 - y12_51 - y23_51 - y2_37 - y24_34 - y32_47 - y13_43 - y43_56 - y35_52 - y1_59 - y5_20 - y17_49 - y5_56 - y50_55 - y6_30 - y42_51 - y21_28 - y20_41 - y31_41 - y23_46 - y4_42 - y12_55 - y13_20 - y32_33 - y13_29 - y32_51 - y16_34 - y1_45 - y16_52 - y9_13 - y5_24 - y38_58 - y28_35 - y28_44 - y9_40 - y5_51 - y6_16 - y6_25 - y42_46 - y27_57 - y20_27 - y39_40 - y10_13 - y2_9 - y12_41 - y4_37 - y23_50 - y13_15 - y23_59 - y1_22 - y4_55 - y16_20 - y32_37 - y1_31 - y43_46 - y24_42 - y5_10 - y1_58 - y46_48 - y38_44 - y5_19 - y17_30 - y28_30 - y9_35 - y6_11 - y27_43 - y6_20 - y30_48 - y19_57 - y20_22 - y30_57 - y42_59 - y12_18 - y20_31 - y20_40 - y23_36 - y31_49 - y23_45 - y4_41 - y12_54 - y13_19 - y4_59 - y16_24 - y24_37 - y1_44 - y9_12 - y15_46 - y26_55 - y27_29 - y27_38 - y27_47 - y30_43 - y42_45 - y30_52 - y0_48 - y12_13 - y20_26 - y0_57 - y31_35 - y23_31 - y12_40 - y23_40 - y12_49 - y23_49 - y34_46 - y34_55 - y14_58 - y5_18 - y46_56 - y15_50 - y49_52 - y7_55 - y8_20 - y18_55 - y19_20 - y27_42 - y0_25 - y11_25 - y8_38 - y8_47 - y19_47 - y8_56 - y19_56 - y20_21 - y11_52 - y12_17 - y30_56 - y12_26 - y31_39 - y4_31 - y4_40 - y53_54 - y1_25 - y34_59 - y3_53 - y15_27 - y26_45 - y38_47 - y7_41 - y38_56 - y49_56 - y0_11 - y19_24 - y0_20 - y8_33 - y30_33 - y27_46 - y30_42 - y0_38 - y11_47 - y41_48 - y20_25 - y12_30 - y25_49 - y4_26 - y1_2 - y22_34 - y34_36 - y34_45 - y3_39 - y3_57 - y18_36 - y18_54 - y48_55 - y0_15 - y8_28 - y19_28 - y30_37 - y0_33 - y33_39 - y12_16 - y41_52 - y4_12 - y44_57 - y22_29 - y34_40 - y14_34 - y3_43 - y14_43 - y37_45 - y56_58 - y15_26 - y7_22 - y18_22 - y26_35 - y15_44 - y26_44 - y0_1 - y8_14 - y0_10 - y0_19 - y11_19 - y40_55 - y0_28 - y25_30 - y52_56 - y25_39 - y22_24 - y3_20 - y34_44 - y14_38 - y37_40 - y22_51
 Subject to
C1: x0+x1-y0_1 <=1 
C2: x0+x2 <=1 
C3: x0+x3-y0_3 <=1 
C4: x0+x4 <=1 
C5: x0+x6 <=1 
C6: x0+x7-y0_7 <=1 
C7: x0+x8 <=1 
C8: x0+x10-y0_10 <=1 
C9: x0+x11-y0_11 <=1 
C10: x0+x12-y0_12 <=1 
C11: x0+x13 <=1 
C12: x0+x14 <=1 
C13: x0+x15-y0_15 <=1 
C14: x0+x16 <=1 
C15: x0+x17 <=1 
C16: x0+x18 <=1 
C17: x0+x19-y0_19 <=1 
C18: x0+x20-y0_20 <=1 
C19: x0+x22 <=1 
C20: x0+x23-y0_23 <=1 
C21: x0+x25-y0_25 <=1 
C22: x0+x27 <=1 
C23: x0+x28-y0_28 <=1 
C24: x0+x31 <=1 
C25: x0+x33-y0_33 <=1 
C26: x0+x35-y0_35 <=1 
C27: x0+x37-y0_37 <=1 
C28: x0+x38-y0_38 <=1 
C29: x0+x40-y0_40 <=1 
C30: x0+x45-y0_45 <=1 
C31: x0+x47 <=1 
C32: x0+x48-y0_48 <=1 
C33: x0+x50 <=1 
C34: x0+x54 <=1 
C35: x0+x55 <=1 
C36: x0+x56 <=1 
C37: x0+x57-y0_57 <=1 
C38: x0+x58 <=1 
C39: x0+x59 <=1 
C40: x1+x2-y1_2 <=1 
C41: x1+x3 <=1 
C42: x1+x4 <=1 
C43: x1+x6 <=1 
C44: x1+x7 <=1 
C45: x1+x8 <=1 
C46: x1+x9-y1_9 <=1 
C47: x1+x16 <=1 
C48: x1+x17 <=1 
C49: x1+x18 <=1 
C50: x1+x20 <=1 
C51: x1+x22-y1_22 <=1 
C52: x1+x23-y1_23 <=1 
C53: x1+x24-y1_24 <=1 
C54: x1+x25-y1_25 <=1 
C55: x1+x26 <=1 
C56: x1+x27 <=1 
C57: x1+x28 <=1 
C58: x1+x29-y1_29 <=1 
C59: x1+x30 <=1 
C60: x1+x31-y1_31 <=1 
C61: x1+x32 <=1 
C62: x1+x33 <=1 
C63: x1+x34-y1_34 <=1 
C64: x1+x35 <=1 
C65: x1+x36 <=1 
C66: x1+x37-y1_37 <=1 
C67: x1+x39 <=1 
C68: x1+x41 <=1 
C69: x1+x42-y1_42 <=1 
C70: x1+x44-y1_44 <=1 
C71: x1+x45-y1_45 <=1 
C72: x1+x49 <=1 
C73: x1+x52 <=1 
C74: x1+x53 <=1 
C75: x1+x54 <=1 
C76: x1+x56-y1_56 <=1 
C77: x1+x57 <=1 
C78: x1+x58-y1_58 <=1 
C79: x1+x59-y1_59 <=1 
C80: x2+x6-y2_6 <=1 
C81: x2+x7-y2_7 <=1 
C82: x2+x9-y2_9 <=1 
C83: x2+x12 <=1 
C84: x2+x13 <=1 
C85: x2+x14 <=1 
C86: x2+x16 <=1 
C87: x2+x21-y2_21 <=1 
C88: x2+x23 <=1 
C89: x2+x24 <=1 
C90: x2+x26 <=1 
C91: x2+x27-y2_27 <=1 
C92: x2+x28 <=1 
C93: x2+x29 <=1 
C94: x2+x30-y2_30 <=1 
C95: x2+x32 <=1 
C96: x2+x33 <=1 
C97: x2+x34-y2_34 <=1 
C98: x2+x35-y2_35 <=1 
C99: x2+x36 <=1 
C100: x2+x37-y2_37 <=1 
C101: x2+x39 <=1 
C102: x2+x40-y2_40 <=1 
C103: x2+x41-y2_41 <=1 
C104: x2+x44 <=1 
C105: x2+x45-y2_45 <=1 
C106: x2+x46 <=1 
C107: x2+x47-y2_47 <=1 
C108: x2+x48 <=1 
C109: x2+x49-y2_49 <=1 
C110: x2+x52 <=1 
C111: x2+x54 <=1 
C112: x2+x57 <=1 
C113: x2+x59 <=1 
C114: x3+x4 <=1 
C115: x3+x5-y3_5 <=1 
C116: x3+x6-y3_6 <=1 
C117: x3+x7 <=1 
C118: x3+x8 <=1 
C119: x3+x13-y3_13 <=1 
C120: x3+x15 <=1 
C121: x3+x16-y3_16 <=1 
C122: x3+x18 <=1 
C123: x3+x20-y3_20 <=1 
C124: x3+x21-y3_21 <=1 
C125: x3+x23-y3_23 <=1 
C126: x3+x26 <=1 
C127: x3+x28-y3_28 <=1 
C128: x3+x29 <=1 
C129: x3+x30-y3_30 <=1 
C130: x3+x32-y3_32 <=1 
C131: x3+x33-y3_33 <=1 
C132: x3+x34 <=1 
C133: x3+x36 <=1 
C134: x3+x37 <=1 
C135: x3+x39-y3_39 <=1 
C136: x3+x41-y3_41 <=1 
C137: x3+x42 <=1 
C138: x3+x43-y3_43 <=1 
C139: x3+x44-y3_44 <=1 
C140: x3+x46 <=1 
C141: x3+x48 <=1 
C142: x3+x49-y3_49 <=1 
C143: x3+x50-y3_50 <=1 
C144: x3+x51 <=1 
C145: x3+x53-y3_53 <=1 
C146: x3+x55 <=1 
C147: x3+x57-y3_57 <=1 
C148: x3+x58 <=1 
C149: x4+x6-y4_6 <=1 
C150: x4+x7 <=1 
C151: x4+x9-y4_9 <=1 
C152: x4+x12-y4_12 <=1 
C153: x4+x14 <=1 
C154: x4+x18 <=1 
C155: x4+x19 <=1 
C156: x4+x21 <=1 
C157: x4+x22 <=1 
C158: x4+x24-y4_24 <=1 
C159: x4+x25-y4_25 <=1 
C160: x4+x26-y4_26 <=1 
C161: x4+x27 <=1 
C162: x4+x28-y4_28 <=1 
C163: x4+x30 <=1 
C164: x4+x31-y4_31 <=1 
C165: x4+x32 <=1 
C166: x4+x33 <=1 
C167: x4+x37-y4_37 <=1 
C168: x4+x39 <=1 
C169: x4+x40-y4_40 <=1 
C170: x4+x41-y4_41 <=1 
C171: x4+x42-y4_42 <=1 
C172: x4+x43 <=1 
C173: x4+x44 <=1 
C174: x4+x45 <=1 
C175: x4+x47-y4_47 <=1 
C176: x4+x49 <=1 
C177: x4+x51 <=1 
C178: x4+x52 <=1 
C179: x4+x54 <=1 
C180: x4+x55-y4_55 <=1 
C181: x4+x56 <=1 
C182: x4+x57 <=1 
C183: x4+x58 <=1 
C184: x4+x59-y4_59 <=1 
C185: x5+x6 <=1 
C186: x5+x8 <=1 
C187: x5+x10-y5_10 <=1 
C188: x5+x12-y5_12 <=1 
C189: x5+x13 <=1 
C190: x5+x17 <=1 
C191: x5+x18-y5_18 <=1 
C192: x5+x19-y5_19 <=1 
C193: x5+x20-y5_20 <=1 
C194: x5+x23 <=1 
C195: x5+x24-y5_24 <=1 
C196: x5+x25 <=1 
C197: x5+x26-y5_26 <=1 
C198: x5+x27 <=1 
C199: x5+x28 <=1 
C200: x5+x30-y5_30 <=1 
C201: x5+x31-y5_31 <=1 
C202: x5+x32 <=1 
C203: x5+x34 <=1 
C204: x5+x35-y5_35 <=1 
C205: x5+x36-y5_36 <=1 
C206: x5+x39-y5_39 <=1 
C207: x5+x40 <=1 
C208: x5+x42 <=1 
C209: x5+x43 <=1 
C210: x5+x44-y5_44 <=1 
C211: x5+x45-y5_45 <=1 
C212: x5+x46 <=1 
C213: x5+x48-y5_48 <=1 
C214: x5+x51-y5_51 <=1 
C215: x5+x52 <=1 
C216: x5+x53 <=1 
C217: x5+x56-y5_56 <=1 
C218: x5+x57-y5_57 <=1 
C219: x5+x58 <=1 
C220: x6+x7 <=1 
C221: x6+x9-y6_9 <=1 
C222: x6+x10 <=1 
C223: x6+x11-y6_11 <=1 
C224: x6+x12 <=1 
C225: x6+x15 <=1 
C226: x6+x16-y6_16 <=1 
C227: x6+x17-y6_17 <=1 
C228: x6+x18-y6_18 <=1 
C229: x6+x20-y6_20 <=1 
C230: x6+x24-y6_24 <=1 
C231: x6+x25-y6_25 <=1 
C232: x6+x27 <=1 
C233: x6+x28-y6_28 <=1 
C234: x6+x29 <=1 
C235: x6+x30-y6_30 <=1 
C236: x6+x33-y6_33 <=1 
C237: x6+x34 <=1 
C238: x6+x36 <=1 
C239: x6+x37-y6_37 <=1 
C240: x6+x44 <=1 
C241: x6+x45 <=1 
C242: x6+x47 <=1 
C243: x6+x52 <=1 
C244: x6+x54 <=1 
C245: x6+x55 <=1 
C246: x6+x58-y6_58 <=1 
C247: x7+x9 <=1 
C248: x7+x10-y7_10 <=1 
C249: x7+x11 <=1 
C250: x7+x13 <=1 
C251: x7+x15-y7_15 <=1 
C252: x7+x16 <=1 
C253: x7+x17-y7_17 <=1 
C254: x7+x19-y7_19 <=1 
C255: x7+x22-y7_22 <=1 
C256: x7+x23 <=1 
C257: x7+x29-y7_29 <=1 
C258: x7+x30-y7_30 <=1 
C259: x7+x33-y7_33 <=1 
C260: x7+x35 <=1 
C261: x7+x36 <=1 
C262: x7+x37-y7_37 <=1 
C263: x7+x38-y7_38 <=1 
C264: x7+x39 <=1 
C265: x7+x41-y7_41 <=1 
C266: x7+x42 <=1 
C267: x7+x43-y7_43 <=1 
C268: x7+x44 <=1 
C269: x7+x46 <=1 
C270: x7+x51 <=1 
C271: x7+x52 <=1 
C272: x7+x53 <=1 
C273: x7+x54 <=1 
C274: x7+x55-y7_55 <=1 
C275: x8+x9 <=1 
C276: x8+x12-y8_12 <=1 
C277: x8+x13-y8_13 <=1 
C278: x8+x14-y8_14 <=1 
C279: x8+x17 <=1 
C280: x8+x19 <=1 
C281: x8+x20-y8_20 <=1 
C282: x8+x21-y8_21 <=1 
C283: x8+x24 <=1 
C284: x8+x25 <=1 
C285: x8+x27 <=1 
C286: x8+x28-y8_28 <=1 
C287: x8+x30-y8_30 <=1 
C288: x8+x31-y8_31 <=1 
C289: x8+x32-y8_32 <=1 
C290: x8+x33-y8_33 <=1 
C291: x8+x35-y8_35 <=1 
C292: x8+x36-y8_36 <=1 
C293: x8+x37 <=1 
C294: x8+x38-y8_38 <=1 
C295: x8+x40 <=1 
C296: x8+x41 <=1 
C297: x8+x42 <=1 
C298: x8+x45 <=1 
C299: x8+x47-y8_47 <=1 
C300: x8+x49-y8_49 <=1 
C301: x8+x50 <=1 
C302: x8+x51-y8_51 <=1 
C303: x8+x52 <=1 
C304: x8+x54 <=1 
C305: x8+x55 <=1 
C306: x8+x56-y8_56 <=1 
C307: x8+x59-y8_59 <=1 
C308: x9+x10 <=1 
C309: x9+x11 <=1 
C310: x9+x12-y9_12 <=1 
C311: x9+x13-y9_13 <=1 
C312: x9+x15-y9_15 <=1 
C313: x9+x17 <=1 
C314: x9+x23 <=1 
C315: x9+x24-y9_24 <=1 
C316: x9+x28-y9_28 <=1 
C317: x9+x29 <=1 
C318: x9+x30-y9_30 <=1 
C319: x9+x32-y9_32 <=1 
C320: x9+x34 <=1 
C321: x9+x35-y9_35 <=1 
C322: x9+x36 <=1 
C323: x9+x37-y9_37 <=1 
C324: x9+x38-y9_38 <=1 
C325: x9+x39-y9_39 <=1 
C326: x9+x40-y9_40 <=1 
C327: x9+x42-y9_42 <=1 
C328: x9+x47 <=1 
C329: x9+x51 <=1 
C330: x9+x55-y9_55 <=1 
C331: x9+x56 <=1 
C332: x9+x58 <=1 
C333: x10+x11 <=1 
C334: x10+x12-y10_12 <=1 
C335: x10+x13-y10_13 <=1 
C336: x10+x14-y10_14 <=1 
C337: x10+x16 <=1 
C338: x10+x17-y10_17 <=1 
C339: x10+x18 <=1 
C340: x10+x19-y10_19 <=1 
C341: x10+x20 <=1 
C342: x10+x21-y10_21 <=1 
C343: x10+x22-y10_22 <=1 
C344: x10+x23-y10_23 <=1 
C345: x10+x24-y10_24 <=1 
C346: x10+x26-y10_26 <=1 
C347: x10+x27-y10_27 <=1 
C348: x10+x29-y10_29 <=1 
C349: x10+x32-y10_32 <=1 
C350: x10+x33 <=1 
C351: x10+x34-y10_34 <=1 
C352: x10+x36-y10_36 <=1 
C353: x10+x37-y10_37 <=1 
C354: x10+x40 <=1 
C355: x10+x44-y10_44 <=1 
C356: x10+x45-y10_45 <=1 
C357: x10+x46 <=1 
C358: x10+x51-y10_51 <=1 
C359: x10+x53-y10_53 <=1 
C360: x10+x55 <=1 
C361: x10+x58-y10_58 <=1 
C362: x10+x59 <=1 
C363: x11+x12-y11_12 <=1 
C364: x11+x14-y11_14 <=1 
C365: x11+x16-y11_16 <=1 
C366: x11+x17 <=1 
C367: x11+x18-y11_18 <=1 
C368: x11+x19-y11_19 <=1 
C369: x11+x22-y11_22 <=1 
C370: x11+x23 <=1 
C371: x11+x25-y11_25 <=1 
C372: x11+x26 <=1 
C373: x11+x31 <=1 
C374: x11+x32 <=1 
C375: x11+x33 <=1 
C376: x11+x35 <=1 
C377: x11+x38 <=1 
C378: x11+x40 <=1 
C379: x11+x45 <=1 
C380: x11+x46-y11_46 <=1 
C381: x11+x47-y11_47 <=1 
C382: x11+x50-y11_50 <=1 
C383: x11+x52-y11_52 <=1 
C384: x11+x54-y11_54 <=1 
C385: x11+x56-y11_56 <=1 
C386: x11+x57 <=1 
C387: x11+x58 <=1 
C388: x11+x59 <=1 
C389: x12+x13-y12_13 <=1 
C390: x12+x14-y12_14 <=1 
C391: x12+x16-y12_16 <=1 
C392: x12+x17-y12_17 <=1 
C393: x12+x18-y12_18 <=1 
C394: x12+x20 <=1 
C395: x12+x21 <=1 
C396: x12+x22 <=1 
C397: x12+x23 <=1 
C398: x12+x24-y12_24 <=1 
C399: x12+x25 <=1 
C400: x12+x26-y12_26 <=1 
C401: x12+x27 <=1 
C402: x12+x29-y12_29 <=1 
C403: x12+x30-y12_30 <=1 
C404: x12+x32 <=1 
C405: x12+x33 <=1 
C406: x12+x35 <=1 
C407: x12+x39-y12_39 <=1 
C408: x12+x40-y12_40 <=1 
C409: x12+x41-y12_41 <=1 
C410: x12+x42 <=1 
C411: x12+x45 <=1 
C412: x12+x48-y12_48 <=1 
C413: x12+x49-y12_49 <=1 
C414: x12+x51-y12_51 <=1 
C415: x12+x52-y12_52 <=1 
C416: x12+x53 <=1 
C417: x12+x54-y12_54 <=1 
C418: x12+x55-y12_55 <=1 
C419: x12+x56 <=1 
C420: x12+x58-y12_58 <=1 
C421: x13+x14 <=1 
C422: x13+x15-y13_15 <=1 
C423: x13+x19-y13_19 <=1 
C424: x13+x20-y13_20 <=1 
C425: x13+x21-y13_21 <=1 
C426: x13+x22 <=1 
C427: x13+x23 <=1 
C428: x13+x25 <=1 
C429: x13+x26-y13_26 <=1 
C430: x13+x27 <=1 
C431: x13+x29-y13_29 <=1 
C432: x13+x31 <=1 
C433: x13+x33 <=1 
C434: x13+x34 <=1 
C435: x13+x35-y13_35 <=1 
C436: x13+x36 <=1 
C437: x13+x39-y13_39 <=1 
C438: x13+x40 <=1 
C439: x13+x41 <=1 
C440: x13+x42 <=1 
C441: x13+x43-y13_43 <=1 
C442: x13+x46-y13_46 <=1 
C443: x13+x50 <=1 
C444: x13+x51 <=1 
C445: x13+x53 <=1 
C446: x13+x55-y13_55 <=1 
C447: x13+x56 <=1 
C448: x13+x57-y13_57 <=1 
C449: x13+x58-y13_58 <=1 
C450: x14+x15-y14_15 <=1 
C451: x14+x16-y14_16 <=1 
C452: x14+x18-y14_18 <=1 
C453: x14+x21 <=1 
C454: x14+x22-y14_22 <=1 
C455: x14+x23 <=1 
C456: x14+x24-y14_24 <=1 
C457: x14+x26 <=1 
C458: x14+x27-y14_27 <=1 
C459: x14+x28-y14_28 <=1 
C460: x14+x33 <=1 
C461: x14+x34-y14_34 <=1 
C462: x14+x35 <=1 
C463: x14+x37-y14_37 <=1 
C464: x14+x38-y14_38 <=1 
C465: x14+x39 <=1 
C466: x14+x40 <=1 
C467: x14+x41 <=1 
C468: x14+x43-y14_43 <=1 
C469: x14+x44 <=1 
C470: x14+x45 <=1 
C471: x14+x46 <=1 
C472: x14+x49 <=1 
C473: x14+x50-y14_50 <=1 
C474: x14+x52 <=1 
C475: x14+x54-y14_54 <=1 
C476: x14+x58-y14_58 <=1 
C477: x14+x59-y14_59 <=1 
C478: x15+x18-y15_18 <=1 
C479: x15+x19 <=1 
C480: x15+x22 <=1 
C481: x15+x24-y15_24 <=1 
C482: x15+x26-y15_26 <=1 
C483: x15+x27-y15_27 <=1 
C484: x15+x28 <=1 
C485: x15+x30-y15_30 <=1 
C486: x15+x31 <=1 
C487: x15+x32-y15_32 <=1 
C488: x15+x33 <=1 
C489: x15+x37 <=1 
C490: x15+x39 <=1 
C491: x15+x43 <=1 
C492: x15+x44-y15_44 <=1 
C493: x15+x45 <=1 
C494: x15+x46-y15_46 <=1 
C495: x15+x50-y15_50 <=1 
C496: x15+x52 <=1 
C497: x15+x53 <=1 
C498: x15+x55 <=1 
C499: x15+x56-y15_56 <=1 
C500: x15+x57-y15_57 <=1 
C501: x15+x58 <=1 
C502: x15+x59 <=1 
C503: x16+x19 <=1 
C504: x16+x20-y16_20 <=1 
C505: x16+x21-y16_21 <=1 
C506: x16+x23 <=1 
C507: x16+x24-y16_24 <=1 
C508: x16+x26-y16_26 <=1 
C509: x16+x27 <=1 
C510: x16+x29 <=1 
C511: x16+x30-y16_30 <=1 
C512: x16+x32-y16_32 <=1 
C513: x16+x33 <=1 
C514: x16+x34-y16_34 <=1 
C515: x16+x35-y16_35 <=1 
C516: x16+x37 <=1 
C517: x16+x38 <=1 
C518: x16+x39 <=1 
C519: x16+x40 <=1 
C520: x16+x41-y16_41 <=1 
C521: x16+x43 <=1 
C522: x16+x44 <=1 
C523: x16+x45-y16_45 <=1 
C524: x16+x47 <=1 
C525: x16+x49 <=1 
C526: x16+x50 <=1 
C527: x16+x51 <=1 
C528: x16+x52-y16_52 <=1 
C529: x16+x55 <=1 
C530: x16+x58-y16_58 <=1 
C531: x17+x19 <=1 
C532: x17+x20 <=1 
C533: x17+x21 <=1 
C534: x17+x22 <=1 
C535: x17+x23 <=1 
C536: x17+x25-y17_25 <=1 
C537: x17+x28 <=1 
C538: x17+x30-y17_30 <=1 
C539: x17+x31 <=1 
C540: x17+x32 <=1 
C541: x17+x33-y17_33 <=1 
C542: x17+x34-y17_34 <=1 
C543: x17+x37 <=1 
C544: x17+x38-y17_38 <=1 
C545: x17+x39 <=1 
C546: x17+x40 <=1 
C547: x17+x41 <=1 
C548: x17+x42 <=1 
C549: x17+x43 <=1 
C550: x17+x44 <=1 
C551: x17+x47-y17_47 <=1 
C552: x17+x48-y17_48 <=1 
C553: x17+x49-y17_49 <=1 
C554: x17+x52-y17_52 <=1 
C555: x17+x53 <=1 
C556: x17+x54 <=1 
C557: x17+x56 <=1 
C558: x17+x58 <=1 
C559: x17+x59 <=1 
C560: x18+x19 <=1 
C561: x18+x20-y18_20 <=1 
C562: x18+x21-y18_21 <=1 
C563: x18+x22-y18_22 <=1 
C564: x18+x23 <=1 
C565: x18+x24-y18_24 <=1 
C566: x18+x30 <=1 
C567: x18+x31 <=1 
C568: x18+x32 <=1 
C569: x18+x34 <=1 
C570: x18+x35 <=1 
C571: x18+x36-y18_36 <=1 
C572: x18+x38-y18_38 <=1 
C573: x18+x40 <=1 
C574: x18+x41 <=1 
C575: x18+x43 <=1 
C576: x18+x46 <=1 
C577: x18+x50 <=1 
C578: x18+x52-y18_52 <=1 
C579: x18+x53 <=1 
C580: x18+x54-y18_54 <=1 
C581: x18+x55-y18_55 <=1 
C582: x18+x56 <=1 
C583: x19+x20-y19_20 <=1 
C584: x19+x21 <=1 
C585: x19+x22 <=1 
C586: x19+x24-y19_24 <=1 
C587: x19+x26-y19_26 <=1 
C588: x19+x28-y19_28 <=1 
C589: x19+x32 <=1 
C590: x19+x33 <=1 
C591: x19+x36-y19_36 <=1 
C592: x19+x37 <=1 
C593: x19+x38 <=1 
C594: x19+x40 <=1 
C595: x19+x41 <=1 
C596: x19+x43 <=1 
C597: x19+x45 <=1 
C598: x19+x47-y19_47 <=1 
C599: x19+x48 <=1 
C600: x19+x49-y19_49 <=1 
C601: x19+x50-y19_50 <=1 
C602: x19+x51 <=1 
C603: x19+x52 <=1 
C604: x19+x56-y19_56 <=1 
C605: x19+x57-y19_57 <=1 
C606: x19+x58 <=1 
C607: x19+x59 <=1 
C608: x20+x21-y20_21 <=1 
C609: x20+x22-y20_22 <=1 
C610: x20+x24-y20_24 <=1 
C611: x20+x25-y20_25 <=1 
C612: x20+x26-y20_26 <=1 
C613: x20+x27-y20_27 <=1 
C614: x20+x28-y20_28 <=1 
C615: x20+x31-y20_31 <=1 
C616: x20+x33 <=1 
C617: x20+x38-y20_38 <=1 
C618: x20+x40-y20_40 <=1 
C619: x20+x41-y20_41 <=1 
C620: x20+x42 <=1 
C621: x20+x43 <=1 
C622: x20+x45 <=1 
C623: x20+x46-y20_46 <=1 
C624: x20+x51 <=1 
C625: x20+x52 <=1 
C626: x20+x53-y20_53 <=1 
C627: x20+x55-y20_55 <=1 
C628: x20+x56-y20_56 <=1 
C629: x21+x24 <=1 
C630: x21+x25-y21_25 <=1 
C631: x21+x27 <=1 
C632: x21+x28-y21_28 <=1 
C633: x21+x30 <=1 
C634: x21+x31-y21_31 <=1 
C635: x21+x32 <=1 
C636: x21+x33 <=1 
C637: x21+x34-y21_34 <=1 
C638: x21+x35 <=1 
C639: x21+x36 <=1 
C640: x21+x37 <=1 
C641: x21+x38-y21_38 <=1 
C642: x21+x39 <=1 
C643: x21+x40-y21_40 <=1 
C644: x21+x41-y21_41 <=1 
C645: x21+x44 <=1 
C646: x21+x46 <=1 
C647: x21+x47 <=1 
C648: x21+x48-y21_48 <=1 
C649: x21+x50-y21_50 <=1 
C650: x21+x53 <=1 
C651: x21+x54-y21_54 <=1 
C652: x21+x55-y21_55 <=1 
C653: x21+x57 <=1 
C654: x21+x58 <=1 
C655: x21+x59-y21_59 <=1 
C656: x22+x24-y22_24 <=1 
C657: x22+x26 <=1 
C658: x22+x27-y22_27 <=1 
C659: x22+x29-y22_29 <=1 
C660: x22+x30-y22_30 <=1 
C661: x22+x32-y22_32 <=1 
C662: x22+x34-y22_34 <=1 
C663: x22+x35-y22_35 <=1 
C664: x22+x37-y22_37 <=1 
C665: x22+x41 <=1 
C666: x22+x42 <=1 
C667: x22+x46-y22_46 <=1 
C668: x22+x47 <=1 
C669: x22+x48 <=1 
C670: x22+x50 <=1 
C671: x22+x51-y22_51 <=1 
C672: x22+x53-y22_53 <=1 
C673: x22+x54-y22_54 <=1 
C674: x22+x57 <=1 
C675: x22+x58-y22_58 <=1 
C676: x23+x26 <=1 
C677: x23+x29-y23_29 <=1 
C678: x23+x31-y23_31 <=1 
C679: x23+x34-y23_34 <=1 
C680: x23+x36-y23_36 <=1 
C681: x23+x38-y23_38 <=1 
C682: x23+x39-y23_39 <=1 
C683: x23+x40-y23_40 <=1 
C684: x23+x43 <=1 
C685: x23+x44 <=1 
C686: x23+x45-y23_45 <=1 
C687: x23+x46-y23_46 <=1 
C688: x23+x49-y23_49 <=1 
C689: x23+x50-y23_50 <=1 
C690: x23+x51-y23_51 <=1 
C691: x23+x57 <=1 
C692: x23+x58-y23_58 <=1 
C693: x23+x59-y23_59 <=1 
C694: x24+x25-y24_25 <=1 
C695: x24+x27-y24_27 <=1 
C696: x24+x28 <=1 
C697: x24+x30 <=1 
C698: x24+x31 <=1 
C699: x24+x33 <=1 
C700: x24+x34-y24_34 <=1 
C701: x24+x37-y24_37 <=1 
C702: x24+x39 <=1 
C703: x24+x42-y24_42 <=1 
C704: x24+x44-y24_44 <=1 
C705: x24+x46 <=1 
C706: x24+x48-y24_48 <=1 
C707: x24+x51 <=1 
C708: x24+x53-y24_53 <=1 
C709: x24+x57 <=1 
C710: x24+x58 <=1 
C711: x25+x26 <=1 
C712: x25+x27 <=1 
C713: x25+x29 <=1 
C714: x25+x30-y25_30 <=1 
C715: x25+x31 <=1 
C716: x25+x32 <=1 
C717: x25+x35-y25_35 <=1 
C718: x25+x37 <=1 
C719: x25+x39-y25_39 <=1 
C720: x25+x40-y25_40 <=1 
C721: x25+x41 <=1 
C722: x25+x43 <=1 
C723: x25+x45-y25_45 <=1 
C724: x25+x46-y25_46 <=1 
C725: x25+x47-y25_47 <=1 
C726: x25+x48 <=1 
C727: x25+x49-y25_49 <=1 
C728: x25+x53 <=1 
C729: x25+x54 <=1 
C730: x25+x55 <=1 
C731: x25+x57 <=1 
C732: x25+x58 <=1 
C733: x25+x59-y25_59 <=1 
C734: x26+x27 <=1 
C735: x26+x29 <=1 
C736: x26+x33 <=1 
C737: x26+x35-y26_35 <=1 
C738: x26+x37 <=1 
C739: x26+x42-y26_42 <=1 
C740: x26+x43 <=1 
C741: x26+x44-y26_44 <=1 
C742: x26+x45-y26_45 <=1 
C743: x26+x47-y26_47 <=1 
C744: x26+x48 <=1 
C745: x26+x50 <=1 
C746: x26+x51-y26_51 <=1 
C747: x26+x52-y26_52 <=1 
C748: x26+x53 <=1 
C749: x26+x54 <=1 
C750: x26+x55-y26_55 <=1 
C751: x26+x56 <=1 
C752: x26+x57-y26_57 <=1 
C753: x27+x29-y27_29 <=1 
C754: x27+x30-y27_30 <=1 
C755: x27+x31 <=1 
C756: x27+x32 <=1 
C757: x27+x33 <=1 
C758: x27+x36-y27_36 <=1 
C759: x27+x38-y27_38 <=1 
C760: x27+x41-y27_41 <=1 
C761: x27+x42-y27_42 <=1 
C762: x27+x43-y27_43 <=1 
C763: x27+x46-y27_46 <=1 
C764: x27+x47-y27_47 <=1 
C765: x27+x48 <=1 
C766: x27+x52 <=1 
C767: x27+x53 <=1 
C768: x27+x54-y27_54 <=1 
C769: x27+x55-y27_55 <=1 
C770: x27+x56 <=1 
C771: x27+x57-y27_57 <=1 
C772: x28+x30-y28_30 <=1 
C773: x28+x32-y28_32 <=1 
C774: x28+x33-y28_33 <=1 
C775: x28+x35-y28_35 <=1 
C776: x28+x39-y28_39 <=1 
C777: x28+x42-y28_42 <=1 
C778: x28+x43-y28_43 <=1 
C779: x28+x44-y28_44 <=1 
C780: x28+x45 <=1 
C781: x28+x47-y28_47 <=1 
C782: x28+x49 <=1 
C783: x28+x50-y28_50 <=1 
C784: x28+x54-y28_54 <=1 
C785: x28+x56 <=1 
C786: x28+x57-y28_57 <=1 
C787: x29+x30-y29_30 <=1 
C788: x29+x31 <=1 
C789: x29+x32 <=1 
C790: x29+x33 <=1 
C791: x29+x35-y29_35 <=1 
C792: x29+x37-y29_37 <=1 
C793: x29+x41-y29_41 <=1 
C794: x29+x45 <=1 
C795: x29+x51-y29_51 <=1 
C796: x29+x53 <=1 
C797: x29+x55 <=1 
C798: x29+x56-y29_56 <=1 
C799: x29+x57 <=1 
C800: x30+x31 <=1 
C801: x30+x33-y30_33 <=1 
C802: x30+x34 <=1 
C803: x30+x35 <=1 
C804: x30+x36 <=1 
C805: x30+x37-y30_37 <=1 
C806: x30+x39 <=1 
C807: x30+x40 <=1 
C808: x30+x41 <=1 
C809: x30+x42-y30_42 <=1 
C810: x30+x43-y30_43 <=1 
C811: x30+x44-y30_44 <=1 
C812: x30+x48-y30_48 <=1 
C813: x30+x49-y30_49 <=1 
C814: x30+x52-y30_52 <=1 
C815: x30+x54 <=1 
C816: x30+x55 <=1 
C817: x30+x56-y30_56 <=1 
C818: x30+x57-y30_57 <=1 
C819: x30+x58-y30_58 <=1 
C820: x31+x32-y31_32 <=1 
C821: x31+x34-y31_34 <=1 
C822: x31+x35-y31_35 <=1 
C823: x31+x37 <=1 
C824: x31+x38-y31_38 <=1 
C825: x31+x39-y31_39 <=1 
C826: x31+x41-y31_41 <=1 
C827: x31+x42-y31_42 <=1 
C828: x31+x43-y31_43 <=1 
C829: x31+x44 <=1 
C830: x31+x45 <=1 
C831: x31+x47 <=1 
C832: x31+x48-y31_48 <=1 
C833: x31+x49-y31_49 <=1 
C834: x31+x50 <=1 
C835: x31+x51-y31_51 <=1 
C836: x31+x52-y31_52 <=1 
C837: x31+x54 <=1 
C838: x31+x57 <=1 
C839: x31+x59 <=1 
C840: x32+x33-y32_33 <=1 
C841: x32+x34 <=1 
C842: x32+x37-y32_37 <=1 
C843: x32+x40 <=1 
C844: x32+x41-y32_41 <=1 
C845: x32+x43 <=1 
C846: x32+x44-y32_44 <=1 
C847: x32+x47-y32_47 <=1 
C848: x32+x48-y32_48 <=1 
C849: x32+x49 <=1 
C850: x32+x51-y32_51 <=1 
C851: x32+x54 <=1 
C852: x32+x55 <=1 
C853: x32+x56 <=1 
C854: x32+x58 <=1 
C855: x32+x59-y32_59 <=1 
C856: x33+x34 <=1 
C857: x33+x35-y33_35 <=1 
C858: x33+x36-y33_36 <=1 
C859: x33+x37 <=1 
C860: x33+x39-y33_39 <=1 
C861: x33+x40 <=1 
C862: x33+x43 <=1 
C863: x33+x44 <=1 
C864: x33+x47-y33_47 <=1 
C865: x33+x50 <=1 
C866: x33+x52 <=1 
C867: x33+x54-y33_54 <=1 
C868: x33+x55-y33_55 <=1 
C869: x33+x57 <=1 
C870: x34+x36-y34_36 <=1 
C871: x34+x37 <=1 
C872: x34+x40-y34_40 <=1 
C873: x34+x41 <=1 
C874: x34+x42 <=1 
C875: x34+x43 <=1 
C876: x34+x44-y34_44 <=1 
C877: x34+x45-y34_45 <=1 
C878: x34+x46-y34_46 <=1 
C879: x34+x49 <=1 
C880: x34+x51-y34_51 <=1 
C881: x34+x52-y34_52 <=1 
C882: x34+x54 <=1 
C883: x34+x55-y34_55 <=1 
C884: x34+x59-y34_59 <=1 
C885: x35+x36 <=1 
C886: x35+x37 <=1 
C887: x35+x39-y35_39 <=1 
C888: x35+x40-y35_40 <=1 
C889: x35+x42 <=1 
C890: x35+x43 <=1 
C891: x35+x45 <=1 
C892: x35+x46-y35_46 <=1 
C893: x35+x47 <=1 
C894: x35+x48-y35_48 <=1 
C895: x35+x49 <=1 
C896: x35+x50 <=1 
C897: x35+x51 <=1 
C898: x35+x52-y35_52 <=1 
C899: x35+x53 <=1 
C900: x35+x55-y35_55 <=1 
C901: x35+x56 <=1 
C902: x35+x57 <=1 
C903: x35+x58 <=1 
C904: x35+x59-y35_59 <=1 
C905: x36+x37-y36_37 <=1 
C906: x36+x38 <=1 
C907: x36+x42-y36_42 <=1 
C908: x36+x43 <=1 
C909: x36+x44 <=1 
C910: x36+x45-y36_45 <=1 
C911: x36+x46-y36_46 <=1 
C912: x36+x47 <=1 
C913: x36+x48-y36_48 <=1 
C914: x36+x49 <=1 
C915: x36+x50-y36_50 <=1 
C916: x36+x51 <=1 
C917: x36+x52 <=1 
C918: x36+x54 <=1 
C919: x36+x55-y36_55 <=1 
C920: x36+x56 <=1 
C921: x36+x58 <=1 
C922: x37+x38-y37_38 <=1 
C923: x37+x39 <=1 
C924: x37+x40-y37_40 <=1 
C925: x37+x42 <=1 
C926: x37+x43 <=1 
C927: x37+x44 <=1 
C928: x37+x45-y37_45 <=1 
C929: x37+x46 <=1 
C930: x37+x47-y37_47 <=1 
C931: x37+x48 <=1 
C932: x37+x53 <=1 
C933: x37+x54 <=1 
C934: x37+x56 <=1 
C935: x37+x57-y37_57 <=1 
C936: x37+x58-y37_58 <=1 
C937: x37+x59 <=1 
C938: x38+x39 <=1 
C939: x38+x40-y38_40 <=1 
C940: x38+x41 <=1 
C941: x38+x44-y38_44 <=1 
C942: x38+x47-y38_47 <=1 
C943: x38+x49-y38_49 <=1 
C944: x38+x52 <=1 
C945: x38+x54-y38_54 <=1 
C946: x38+x55-y38_55 <=1 
C947: x38+x56-y38_56 <=1 
C948: x38+x58-y38_58 <=1 
C949: x39+x40-y39_40 <=1 
C950: x39+x43-y39_43 <=1 
C951: x39+x44 <=1 
C952: x39+x47 <=1 
C953: x39+x49 <=1 
C954: x39+x52-y39_52 <=1 
C955: x39+x54 <=1 
C956: x39+x55 <=1 
C957: x39+x56-y39_56 <=1 
C958: x39+x58 <=1 
C959: x39+x59 <=1 
C960: x40+x42 <=1 
C961: x40+x43-y40_43 <=1 
C962: x40+x44-y40_44 <=1 
C963: x40+x45 <=1 
C964: x40+x46 <=1 
C965: x40+x47 <=1 
C966: x40+x48 <=1 
C967: x40+x49 <=1 
C968: x40+x50-y40_50 <=1 
C969: x40+x52 <=1 
C970: x40+x53-y40_53 <=1 
C971: x40+x54 <=1 
C972: x40+x55-y40_55 <=1 
C973: x40+x56-y40_56 <=1 
C974: x40+x58 <=1 
C975: x41+x42 <=1 
C976: x41+x43 <=1 
C977: x41+x45-y41_45 <=1 
C978: x41+x47 <=1 
C979: x41+x48-y41_48 <=1 
C980: x41+x52-y41_52 <=1 
C981: x41+x56 <=1 
C982: x41+x58 <=1 
C983: x42+x43-y42_43 <=1 
C984: x42+x44-y42_44 <=1 
C985: x42+x45-y42_45 <=1 
C986: x42+x46-y42_46 <=1 
C987: x42+x47 <=1 
C988: x42+x49 <=1 
C989: x42+x51-y42_51 <=1 
C990: x42+x53-y42_53 <=1 
C991: x42+x54 <=1 
C992: x42+x56-y42_56 <=1 
C993: x42+x57 <=1 
C994: x42+x59-y42_59 <=1 
C995: x43+x46-y43_46 <=1 
C996: x43+x47 <=1 
C997: x43+x49 <=1 
C998: x43+x54-y43_54 <=1 
C999: x43+x56-y43_56 <=1 
C1000: x43+x57-y43_57 <=1 
C1001: x44+x45 <=1 
C1002: x44+x47 <=1 
C1003: x44+x48 <=1 
C1004: x44+x49 <=1 
C1005: x44+x50-y44_50 <=1 
C1006: x44+x51 <=1 
C1007: x44+x54-y44_54 <=1 
C1008: x44+x55-y44_55 <=1 
C1009: x44+x56-y44_56 <=1 
C1010: x44+x57-y44_57 <=1 
C1011: x44+x58 <=1 
C1012: x44+x59-y44_59 <=1 
C1013: x45+x46 <=1 
C1014: x45+x47-y45_47 <=1 
C1015: x45+x49 <=1 
C1016: x45+x51 <=1 
C1017: x45+x52-y45_52 <=1 
C1018: x45+x54 <=1 
C1019: x45+x56-y45_56 <=1 
C1020: x45+x58 <=1 
C1021: x46+x48-y46_48 <=1 
C1022: x46+x49-y46_49 <=1 
C1023: x46+x50 <=1 
C1024: x46+x52 <=1 
C1025: x46+x53 <=1 
C1026: x46+x54-y46_54 <=1 
C1027: x46+x55-y46_55 <=1 
C1028: x46+x56-y46_56 <=1 
C1029: x46+x58-y46_58 <=1 
C1030: x46+x59 <=1 
C1031: x47+x48-y47_48 <=1 
C1032: x47+x49-y47_49 <=1 
C1033: x47+x50 <=1 
C1034: x48+x49 <=1 
C1035: x48+x51-y48_51 <=1 
C1036: x48+x55-y48_55 <=1 
C1037: x48+x56 <=1 
C1038: x48+x57-y48_57 <=1 
C1039: x48+x59 <=1 
C1040: x49+x51 <=1 
C1041: x49+x52-y49_52 <=1 
C1042: x49+x53 <=1 
C1043: x49+x54-y49_54 <=1 
C1044: x49+x56-y49_56 <=1 
C1045: x49+x57 <=1 
C1046: x50+x51-y50_51 <=1 
C1047: x50+x52 <=1 
C1048: x50+x53 <=1 
C1049: x50+x54 <=1 
C1050: x50+x55-y50_55 <=1 
C1051: x50+x56-y50_56 <=1 
C1052: x50+x57 <=1 
C1053: x50+x58 <=1 
C1054: x51+x52-y51_52 <=1 
C1055: x51+x53-y51_53 <=1 
C1056: x51+x54-y51_54 <=1 
C1057: x51+x55 <=1 
C1058: x51+x56 <=1 
C1059: x51+x57 <=1 
C1060: x51+x58-y51_58 <=1 
C1061: x52+x53 <=1 
C1062: x52+x54 <=1 
C1063: x52+x56-y52_56 <=1 
C1064: x52+x58 <=1 
C1065: x52+x59-y52_59 <=1 
C1066: x53+x54-y53_54 <=1 
C1067: x53+x57-y53_57 <=1 
C1068: x53+x58 <=1 
C1069: x53+x59 <=1 
C1070: x54+x57-y54_57 <=1 
C1071: x54+x58-y54_58 <=1 
C1072: x54+x59-y54_59 <=1 
C1073: x55+x56-y55_56 <=1 
C1074: x55+x59 <=1 
C1075: x56+x57 <=1 
C1076: x56+x58-y56_58 <=1 
C1077: x56+x59 <=1 
C1078: x57+x58-y57_58 <=1 
C1079: x57+x59 <=1 
C1080: x58+x59 <=1 

binary
x0
x1
x2
x3
x4
x5
x6
x7
x8
x9
x10
x11
x12
x13
x14
x15
x16
x17
x18
x19
x20
x21
x22
x23
x24
x25
x26
x27
x28
x29
x30
x31
x32
x33
x34
x35
x36
x37
x38
x39
x40
x41
x42
x43
x44
x45
x46
x47
x48
x49
x50
x51
x52
x53
x54
x55
x56
x57
x58
x59
