problem_generation/data/GISP/train/er_n=60_m=1080_p=0.60_SET2_setparam=100.00_alpha=0.50_123.sol
objective value:                                 1175
x7                                                  1 	(obj:100)
x8                                                  1 	(obj:100)
x10                                                 1 	(obj:100)
x12                                                 1 	(obj:100)
x14                                                 1 	(obj:100)
x28                                                 1 	(obj:100)
x29                                                 1 	(obj:100)
x34                                                 1 	(obj:100)
x38                                                 1 	(obj:100)
x47                                                 1 	(obj:100)
x48                                                 1 	(obj:100)
x58                                                 1 	(obj:100)
y47_48                                              1 	(obj:-1)
y10_58                                              1 	(obj:-1)
y14_28                                              1 	(obj:-1)
y10_12                                              1 	(obj:-1)
y12_58                                              1 	(obj:-1)
y28_47                                              1 	(obj:-1)
y12_48                                              1 	(obj:-1)
y12_29                                              1 	(obj:-1)
y12_14                                              1 	(obj:-1)
y7_29                                               1 	(obj:-1)
y7_38                                               1 	(obj:-1)
y8_12                                               1 	(obj:-1)
y10_34                                              1 	(obj:-1)
y7_10                                               1 	(obj:-1)
y10_29                                              1 	(obj:-1)
y10_14                                              1 	(obj:-1)
y38_58                                              1 	(obj:-1)
y14_58                                              1 	(obj:-1)
y8_38                                               1 	(obj:-1)
y8_47                                               1 	(obj:-1)
y38_47                                              1 	(obj:-1)
y8_28                                               1 	(obj:-1)
y14_34                                              1 	(obj:-1)
y8_14                                               1 	(obj:-1)
y14_38                                              1 	(obj:-1)
